c .nnodes 80
c .nvars 641
c .nsuppvars 230
c .ids  0 1 2 3 4 5 6 7 8 9 10 11 12 13 14 15 16 17 18 19 20 21 22 23 24 25 26 27 28 29 30 31 32 33 34 35 36 37 38 39 40 41 42 43 44 45 46 47 48 49 50 51 52 53 54 55 56 57 58 59 60 61 62 63 64 65 66 67 68 69 70 71 72 73 74 75 76 77 78 79 80 81 82 83 84 85 86 87 88 89 90 91 92 93 94 95 96 97 98 99 100 101 102 103 104 105 106 107 108 109 110 111 112 113 114 115 116 117 118 119 120 121 122 123 124 125 126 127 128 129 130 131 132 133 134 135 136 137 138 139 140 141 142 143 144 145 146 147 148 149 150 151 152 153 154 155 156 157 158 159 160 161 162 163 164 165 166 167 168 169 170 171 172 173 174 175 176 177 178 179 180 181 182 183 184 185 186 187 188 189 190 191 192 193 194 195 196 197 198 199 200 201 202 203 204 205 206 207 208 209 210 211 212 213 214 215 216 217 218 219 220 221 222 223 224 225 226 227 228 229 
c .cnfids  703 769 815 618 623 626 627 628 629 608 611 534 541 542 547 548 524 828 867 528 532 536 539 545 546 550 551 553 525 639 640 641 642 643 645 646 705 708 581 589 526 527 530 531 537 540 543 644 579 584 586 535 523 748 580 529 538 522 552 689 731 582 583 600 730 776 781 782 794 638 791 803 807 587 591 604 665 721 724 747 801 692 720 723 726 727 786 788 594 598 559 691 699 725 533 778 809 544 722 601 810 798 607 617 796 805 621 610 616 578 625 613 717 718 622 663 648 558 521 797 519 808 804 518 806 517 710 713 612 574 577 712 619 714 624 575 572 785 787 777 795 614 634 637 635 620 632 695 716 573 615 719 562 709 563 576 606 609 706 711 676 596 715 633 696 636 630 631 605 694 682 683 685 686 677 684 666 680 679 681 549 654 662 652 647 702 656 697 698 650 660 658 588 593 590 592 603 707 595 687 690 561 664 585 602 597 704 599 554 688 693 668 669 670 671 674 672 673 661 675 653 651 655 649 659 657 701 678 667 700 
c .nroots 1
c .rootids 2
p cnf 1158 2444
3 703 -4 -75 -125 0
3 -703 -4 75 -125 0
-3 125 0
-3 -703 -75 0
-3 4 0
-3 703 75 0
4 -578 -34 0
4 -5 -25 -34 0
-4 34 0
-4 578 25 0
-4 578 5 0
5 -776 781 6 -21 0
5 -776 -781 -6 -21 0
5 776 781 6 21 0
5 776 -781 -6 21 0
-5 776 -21 0
-5 -776 21 0
-5 -781 6 0
-5 781 -6 0
6 603 -664 0
6 664 -7 0
6 -664 -786 0
-6 664 7 0
-6 -603 -664 786 0
7 8 10 0
7 -707 8 -19 0
-7 -8 0
-7 -10 19 0
-7 707 -10 0
8 785 -9 0
-8 -785 0
-8 9 0
9 -603 -686 0
-9 603 0
-9 686 0
10 686 706 11 0
-10 -686 0
-10 -11 0
-10 -706 0
11 -690 -12 0
-11 690 0
-11 12 0
12 -13 18 0
12 667 18 0
-12 -18 0
-12 -667 13 0
13 661 674 -14 -17 0
13 -661 -674 -14 -17 0
-13 17 0
-13 -661 674 0
-13 14 0
-13 661 -674 0
14 655 670 -15 16 0
14 -655 -670 -15 16 0
-14 -16 0
-14 -655 670 0
-14 15 0
-14 655 -670 0
15 -649 659 668 -671 0
15 -649 -659 -668 -671 0
15 649 659 668 671 0
15 649 -659 -668 671 0
-15 649 -671 0
-15 -649 671 0
-15 -659 668 0
-15 659 -668 0
16 651 -669 0
16 -651 669 0
-16 -651 -669 0
-16 651 669 0
17 -653 657 -672 673 0
17 653 -657 672 -673 0
17 653 657 672 673 0
17 -653 -657 -672 -673 0
-17 -653 672 0
-17 653 -672 0
-17 657 -673 0
-17 -657 673 0
18 -675 -688 0
18 -688 -701 0
-18 688 0
-18 675 701 0
19 -577 -693 20 0
19 -637 693 20 0
-19 -20 0
-19 637 693 0
-19 577 -693 0
20 667 -700 0
-20 -667 0
-20 700 0
21 603 -664 0
21 664 -22 0
21 -664 -778 0
-21 664 22 0
-21 -603 -664 778 0
22 10 23 0
22 -707 23 -24 0
-22 -23 0
-22 -10 24 0
-22 707 -10 0
23 777 -9 0
-23 -777 0
-23 9 0
24 -572 -693 20 0
24 -632 693 20 0
-24 -20 0
-24 632 693 0
-24 572 -693 0
25 -803 807 26 -30 0
25 -803 -807 -26 -30 0
25 803 807 26 30 0
25 803 -807 -26 30 0
-25 803 -30 0
-25 -803 30 0
-25 -807 26 0
-25 807 -26 0
26 603 -664 0
26 664 -27 0
26 -664 -810 0
-26 664 27 0
-26 -603 -664 810 0
27 10 28 0
27 -707 28 -29 0
-27 -28 0
-27 -10 29 0
-27 707 -10 0
28 806 -9 0
-28 -806 0
-28 9 0
29 -573 -693 20 0
29 -633 693 20 0
-29 -20 0
-29 633 693 0
-29 573 -693 0
30 603 -664 0
30 664 -31 0
30 -664 -809 0
-30 664 31 0
-30 -603 -664 809 0
31 10 32 0
31 -707 32 -33 0
-31 -32 0
-31 -10 33 0
-31 707 -10 0
32 808 -9 0
-32 -808 0
-32 9 0
33 -576 -693 20 0
33 -636 693 20 0
-33 -20 0
-33 636 693 0
-33 576 -693 0
34 35 37 -50 0
34 -788 -37 -50 0
34 788 37 -50 0
-34 50 0
-34 788 -37 0
-34 -788 -35 37 0
35 647 664 -694 36 0
-35 -647 0
-35 -36 0
-35 694 0
-35 -664 0
36 -690 12 0
-36 690 0
-36 -12 0
37 787 -38 -46 0
37 -787 38 -46 0
-37 46 0
-37 787 38 0
-37 -787 -38 0
38 -40 -44 0
38 687 39 44 0
38 -687 40 44 0
-38 40 -44 0
-38 687 -39 44 0
-38 -687 -40 44 0
39 795 -806 0
39 -795 806 0
-39 -795 -806 0
-39 795 806 0
40 39 -41 0
40 -39 41 0
-40 -39 -41 0
-40 39 41 0
41 -667 42 -43 0
41 -667 -42 43 0
41 700 42 -43 0
41 700 -42 43 0
-41 42 43 0
-41 -42 -43 0
-41 667 -700 0
42 632 693 0
42 572 -693 0
-42 -632 693 0
-42 -572 -693 0
43 631 693 0
43 563 -693 0
-43 -631 693 0
-43 -563 -693 0
44 -687 45 0
-44 687 0
-44 -45 0
45 -562 -693 20 0
45 -630 693 20 0
-45 -20 0
-45 630 693 0
-45 562 -693 0
46 -687 -35 47 0
46 -707 -35 47 0
-46 35 0
-46 -47 0
-46 687 707 0
47 -690 -48 0
-47 690 0
-47 48 0
48 549 554 -49 0
48 554 704 49 0
-48 -554 0
-48 -549 -49 0
-48 -704 49 0
49 -561 -702 0
-49 561 0
-49 702 0
50 -795 35 -51 0
50 795 -51 71 0
50 -795 -51 -71 0
-50 51 0
-50 795 -71 0
-50 -795 -35 71 0
51 -797 52 -68 0
51 797 52 68 0
51 -797 35 52 0
-51 -52 0
-51 797 -68 0
-51 -797 -35 68 0
52 -867 -53 0
52 867 53 0
-52 867 -53 0
-52 -867 53 0
53 -554 54 0
53 54 -65 0
-53 -54 0
-53 554 65 0
54 554 -55 57 0
54 554 55 -57 0
-54 -554 0
-54 -55 -57 0
-54 55 57 0
55 -666 56 0
-55 666 0
-55 -56 0
56 -667 -13 0
-56 667 0
-56 13 0
57 -677 58 0
-57 677 0
-57 -58 0
58 -678 -59 -62 -64 0
-58 64 0
-58 678 0
-58 62 0
-58 59 0
59 652 682 -60 -61 0
59 -652 -682 -60 -61 0
-59 61 0
-59 -652 682 0
-59 60 0
-59 652 -682 0
60 -656 679 0
60 -650 681 0
60 -650 -656 0
60 679 681 0
-60 656 -681 0
-60 650 -679 0
61 -654 658 -683 685 0
61 654 -658 683 -685 0
61 654 658 683 685 0
61 -654 -658 -683 -685 0
-61 -654 683 0
-61 654 -683 0
-61 658 -685 0
-61 -658 685 0
62 -660 -684 -63 0
62 660 684 -63 0
-62 63 0
-62 -660 684 0
-62 660 -684 0
63 656 680 0
63 -662 -681 0
63 656 -662 0
63 680 -681 0
-63 -656 681 0
-63 662 -680 0
64 650 662 0
64 -679 -680 0
64 650 -680 0
64 662 -679 0
-64 -650 679 0
-64 -662 680 0
65 601 -675 -66 0
65 601 675 66 0
-65 -601 0
-65 -675 66 0
-65 675 -66 0
66 -658 -660 -662 -67 0
-66 67 0
-66 658 0
-66 662 0
-66 660 0
67 -650 -652 -654 -656 0
-67 656 0
-67 650 0
-67 654 0
-67 652 0
68 -46 69 -70 0
68 -46 -69 70 0
-68 46 0
-68 -69 -70 0
-68 69 70 0
69 -687 33 0
-69 687 0
-69 -33 0
70 785 -798 0
70 -785 798 0
-70 -785 -798 0
-70 785 798 0
71 -46 72 73 0
71 -46 -72 -73 0
-71 46 0
-71 -72 73 0
-71 72 -73 0
72 -687 -29 0
72 687 41 0
-72 -687 29 0
-72 687 -41 0
73 -40 -74 0
73 40 74 0
-73 40 -74 0
-73 -40 74 0
74 -777 -796 0
74 777 796 0
-74 777 -796 0
-74 -777 796 0
75 -76 -111 122 -123 0
75 -76 -111 -122 123 0
-75 111 0
-75 122 123 0
-75 76 0
-75 -122 -123 0
76 -77 -99 -105 -110 0
-76 110 0
-76 77 0
-76 105 0
-76 99 0
77 -87 98 0
77 78 -96 0
77 -87 -96 0
77 78 98 0
-77 96 -98 0
-77 -78 87 0
78 652 -79 -83 0
78 -652 -79 83 0
-78 79 0
-78 -652 -83 0
-78 652 83 0
79 677 -700 0
79 -677 -81 0
79 -677 -80 0
-79 677 700 0
-79 -677 80 81 0
80 -678 64 0
80 -678 59 0
80 -678 62 0
-80 678 0
-80 -59 -62 -64 0
81 678 -82 0
-81 -678 0
-81 82 0
82 701 66 0
-82 -701 0
-82 -66 0
83 -656 -84 0
-83 656 0
-83 84 0
84 -650 -85 0
-84 650 0
-84 85 0
85 -658 -660 86 0
-85 658 0
-85 660 0
-85 -86 0
86 596 -678 0
86 678 700 0
-86 -596 -678 0
-86 678 -700 0
87 651 -88 -91 0
87 -651 -88 91 0
-87 88 0
-87 -651 -91 0
-87 651 91 0
88 -55 90 0
88 -89 90 0
-88 -90 0
-88 55 89 0
89 666 -700 0
-89 -666 0
-89 700 0
90 -666 667 -675 0
90 -666 667 -701 0
-90 666 0
-90 -667 0
-90 675 701 0
91 -655 -92 0
-91 655 0
-91 92 0
92 -649 -93 0
-92 649 0
-92 93 0
93 -659 -94 0
-93 659 0
-93 94 0
94 -657 95 0
-94 657 0
-94 -95 0
95 676 20 0
-95 -676 0
-95 -20 0
96 -88 -97 0
-96 88 0
-96 97 0
97 -657 -95 0
97 657 95 0
-97 657 -95 0
-97 -657 95 0
98 658 -79 86 0
98 -658 -79 -86 0
-98 79 0
-98 -658 86 0
-98 658 -86 0
99 -100 104 0
99 101 -103 0
99 101 104 0
99 -100 -103 0
-99 100 -101 0
-99 103 -104 0
100 650 -79 -85 0
100 -650 -79 85 0
-100 79 0
-100 -650 -85 0
-100 650 85 0
101 -88 -102 0
-101 88 0
-101 102 0
102 649 -93 0
102 -649 93 0
-102 -649 -93 0
-102 649 93 0
103 659 -88 -94 0
103 -659 -88 94 0
-103 88 0
-103 -659 -94 0
-103 659 94 0
104 658 -660 -79 0
104 -660 -79 -86 0
104 -658 660 -79 86 0
-104 660 -86 0
-104 658 660 0
-104 79 0
-104 -658 -660 86 0
105 54 96 -106 0
105 54 -98 -106 0
-105 -54 0
-105 106 0
-105 -96 98 0
106 107 108 0
106 867 107 0
-106 -107 0
-106 -867 -108 0
107 -559 769 -815 0
107 -559 -769 815 0
-107 559 0
-107 -769 -815 0
-107 769 815 0
108 517 518 519 -109 0
-108 109 0
-108 -519 0
-108 -517 0
-108 -518 0
109 -521 554 -558 0
-109 521 0
-109 -554 0
-109 558 0
110 -78 -101 0
110 87 100 0
110 -78 100 0
110 87 -101 0
-110 78 -87 0
-110 -100 101 0
111 -112 -115 -119 0
111 112 115 -119 0
-111 119 0
-111 -112 115 0
-111 112 -115 0
112 -113 -114 0
112 -654 -114 0
-112 114 0
-112 654 113 0
113 -652 -83 0
-113 652 0
-113 83 0
114 67 -79 0
114 -79 85 0
-114 79 0
-114 -67 -85 0
115 -116 -117 0
115 -653 -117 0
-115 117 0
-115 653 116 0
116 -651 -91 0
-116 651 0
-116 91 0
117 -88 118 0
-117 88 0
-117 -118 0
118 -651 -653 -91 0
-118 651 0
-118 653 0
-118 91 0
119 103 -120 -121 0
119 -104 120 121 0
119 103 120 121 0
119 -104 -120 -121 0
-119 120 -121 0
-119 -120 121 0
-119 -103 104 0
120 656 -79 -84 0
120 -656 -79 84 0
-120 79 0
-120 -656 -84 0
-120 656 84 0
121 655 -88 -92 0
121 -655 -88 92 0
-121 88 0
-121 -655 -92 0
-121 655 92 0
122 661 -88 -118 0
122 -661 -88 118 0
-122 88 0
-122 -661 -118 0
-122 661 118 0
123 -662 -124 0
123 662 124 0
-123 662 -124 0
-123 -662 124 0
124 -662 79 0
124 -67 -79 -85 0
-124 662 79 0
-124 67 -79 0
-124 -79 85 0
125 -578 -143 0
125 -126 -134 -143 0
-125 143 0
-125 578 134 0
-125 578 126 0
126 -791 801 127 -130 0
126 -791 -801 -127 -130 0
126 791 801 127 130 0
126 791 -801 -127 130 0
-126 791 -130 0
-126 -791 130 0
-126 -801 127 0
-126 801 -127 0
127 603 -664 0
127 664 -128 0
127 -664 -805 0
-127 664 128 0
-127 -603 -664 805 0
128 10 129 0
128 -707 -45 129 0
-128 -129 0
-128 -10 45 0
-128 707 -10 0
129 804 -9 0
-129 -804 0
-129 9 0
130 603 -664 0
130 664 -131 0
130 -664 -796 0
-130 664 131 0
-130 -603 -664 796 0
131 10 132 0
131 -707 132 -133 0
-131 -132 0
-131 -10 133 0
-131 707 -10 0
132 795 -9 0
-132 -795 0
-132 9 0
133 -574 -693 20 0
133 -634 693 20 0
-133 -20 0
-133 634 693 0
-133 574 -693 0
134 -782 794 -135 139 0
134 782 -794 135 -139 0
134 782 794 135 139 0
134 -782 -794 -135 -139 0
-134 -782 135 0
-134 782 -135 0
-134 794 -139 0
-134 -794 139 0
135 603 -664 0
135 664 -136 0
135 -664 -788 0
-135 664 136 0
-135 -603 -664 788 0
136 10 137 0
136 -707 137 -138 0
-136 -137 0
-136 -10 138 0
-136 707 -10 0
137 787 -9 0
-137 -787 0
-137 9 0
138 -575 -693 20 0
138 -635 693 20 0
-138 -20 0
-138 635 693 0
-138 575 -693 0
139 603 -664 0
139 664 -140 0
139 -664 -798 0
-139 664 140 0
-139 -603 -664 798 0
140 10 142 0
140 -707 -141 142 0
-140 -142 0
-140 -10 141 0
-140 707 -10 0
141 -563 -693 20 0
141 -631 693 20 0
-141 -20 0
-141 631 693 0
-141 563 -693 0
142 797 -9 0
-142 -797 0
-142 9 0
143 -144 -446 -467 -497 0
-143 497 0
-143 144 0
-143 467 0
-143 446 0
144 -145 -222 -422 -437 0
-144 437 0
-144 145 0
-144 422 0
-144 222 0
145 -146 -158 -200 -216 0
-145 216 0
-145 146 0
-145 200 0
-145 158 0
146 655 88 -147 0
146 -88 116 -147 0
-146 147 0
-146 -88 -116 0
-146 -655 88 0
147 -88 148 0
147 653 -149 0
147 653 148 0
147 -88 -149 0
-147 -653 88 0
-147 -148 149 0
148 590 592 593 0
-148 -590 0
-148 -593 0
-148 -592 0
149 -611 618 150 -155 0
149 -611 -618 -150 -155 0
149 611 618 150 155 0
149 611 -618 -150 155 0
-149 611 -155 0
-149 -611 155 0
-149 -618 150 0
-149 618 -150 0
150 585 -151 0
150 -585 588 0
150 -585 -617 0
-150 585 151 0
-150 -585 -588 617 0
151 152 154 0
151 -602 -712 152 0
-151 -152 0
-151 602 -154 0
-151 712 -154 0
152 615 -153 0
-152 -615 0
-152 153 0
153 -588 -597 0
-153 588 0
-153 597 0
154 597 605 -678 0
154 597 599 605 0
-154 -597 0
-154 -605 0
-154 -599 678 0
155 585 -156 0
155 -585 588 0
155 -585 -610 0
-155 585 156 0
-155 -585 -588 610 0
156 154 157 0
156 -602 -714 157 0
-156 -157 0
-156 714 -154 0
-156 602 -154 0
157 609 -153 0
-157 -609 0
-157 153 0
158 124 -159 -193 0
158 124 148 -159 0
-158 -124 0
-158 159 0
-158 -148 193 0
159 -160 -175 -187 -189 0
-159 189 0
-159 160 0
-159 187 0
-159 175 0
160 -612 -161 0
160 -717 167 0
160 -612 -717 0
160 -161 167 0
-160 612 -167 0
-160 717 161 0
161 554 162 0
161 554 163 165 0
-161 -554 0
-161 -162 -163 0
-161 -162 -165 0
162 519 -521 -558 0
-162 558 0
-162 521 0
-162 -519 0
163 517 518 0
163 518 -696 -164 0
-163 -518 0
-163 -517 164 0
-163 -517 696 0
164 697 698 0
-164 -697 0
-164 -698 0
165 -696 -697 -698 -166 0
-165 166 0
-165 696 0
-165 698 0
-165 697 0
166 -517 -518 0
-166 517 0
-166 518 0
167 -613 -168 -170 0
167 613 168 -170 0
-167 170 0
-167 -613 168 0
-167 613 -168 0
168 -595 -169 0
168 595 609 0
-168 595 -609 0
-168 -595 169 0
169 609 -711 0
169 -609 711 0
-169 -609 -711 0
-169 609 711 0
170 -171 -173 0
-170 171 0
-170 173 0
171 -595 172 0
171 -602 172 0
-171 -172 0
-171 595 602 0
172 -599 704 0
-172 599 0
-172 -704 0
173 585 597 -148 174 0
-173 -585 0
-173 -174 0
-173 148 0
-173 -597 0
174 -599 -678 0
-174 599 0
-174 678 0
175 -616 176 -182 0
175 616 176 182 0
175 -616 173 176 0
-175 -176 0
-175 616 -182 0
-175 -616 -173 182 0
176 -625 -173 177 0
-176 625 0
-176 173 0
-176 -177 0
177 -170 -178 0
-177 170 0
-177 178 0
178 595 -179 0
178 -595 180 0
-178 -595 -180 0
-178 595 179 0
179 -620 -624 0
179 620 624 0
-179 620 -624 0
-179 -620 624 0
180 179 -181 0
180 -179 181 0
-180 -179 -181 0
-180 179 181 0
181 -713 -716 0
181 713 716 0
-181 713 -716 0
-181 -713 716 0
182 -170 183 0
-182 170 0
-182 -183 0
183 -184 -185 0
183 184 185 0
-183 184 -185 0
-183 -184 185 0
184 -609 -614 0
184 609 614 0
-184 609 -614 0
-184 -609 614 0
185 -595 186 0
-185 595 0
-185 -186 0
186 -711 -712 0
186 711 712 0
-186 711 -712 0
-186 -711 712 0
187 173 188 0
187 -167 188 0
187 612 188 0
-187 -188 0
-187 -612 -173 167 0
188 -666 -56 0
188 56 -89 0
-188 666 -56 0
-188 56 89 0
189 173 192 0
189 -190 192 0
189 614 192 0
-189 -192 0
-189 -614 -173 190 0
190 616 -170 -191 0
190 -616 -170 191 0
-190 170 0
-190 -616 -191 0
-190 616 191 0
191 595 -615 0
191 -615 -715 0
191 -595 615 715 0
-191 615 -715 0
-191 595 615 0
-191 -595 -615 715 0
192 -517 -717 -162 -161 0
-192 161 0
-192 517 0
-192 162 0
-192 717 0
193 -608 623 -194 197 0
193 608 -623 194 -197 0
193 608 623 194 197 0
193 -608 -623 -194 -197 0
-193 -608 194 0
-193 608 -194 0
-193 623 -197 0
-193 -623 197 0
194 585 -195 0
194 -585 588 0
194 -585 -607 0
-194 585 195 0
-194 -585 -588 607 0
195 154 196 0
195 -602 -713 196 0
-195 -196 0
-195 713 -154 0
-195 602 -154 0
196 606 -153 0
-196 -606 0
-196 153 0
197 585 -198 0
197 -585 588 0
197 -585 -622 0
-197 585 198 0
-197 -585 -588 622 0
198 154 199 0
198 -602 -710 199 0
-198 -199 0
-198 710 -154 0
-198 602 -154 0
199 620 -153 0
-199 -620 0
-199 153 0
200 173 201 -205 0
200 -617 -201 -205 0
200 617 201 -205 0
-200 205 0
-200 617 -201 0
-200 -617 -173 201 0
201 202 203 -204 0
201 180 203 -204 0
-201 204 0
-201 -203 0
-201 -180 -202 0
202 -595 615 -715 0
202 -595 -615 715 0
-202 595 0
-202 -615 -715 0
-202 615 715 0
203 -178 -191 0
-203 178 0
-203 191 0
204 -595 -170 0
204 -170 -179 0
204 -615 -170 0
-204 170 0
-204 595 615 179 0
205 -620 173 211 0
205 620 206 211 0
205 -620 -206 211 0
-205 -211 0
-205 620 -206 0
-205 -620 -173 206 0
206 595 -209 0
206 180 207 -209 0
206 -180 -207 -209 0
-206 209 0
-206 -595 180 -207 0
-206 -595 -180 207 0
207 622 -208 0
207 -622 208 0
-207 -622 -208 0
-207 622 208 0
208 606 -709 0
208 -606 709 0
-208 -606 -709 0
-208 606 709 0
209 -595 -170 0
209 -170 179 -210 0
209 -170 -179 210 0
-209 170 0
-209 595 179 210 0
-209 595 -179 -210 0
210 -606 -622 0
210 606 622 0
-210 606 -622 0
-210 -606 622 0
211 624 -212 0
211 -624 -173 212 0
-211 -624 -212 0
-211 624 212 0
-211 -624 173 0
212 625 -170 213 0
212 -625 -170 -213 0
-212 170 0
-212 -625 213 0
-212 625 -213 0
213 214 -215 0
213 -214 215 0
-213 -214 -215 0
-213 214 215 0
214 -595 709 -710 0
214 -595 -709 710 0
-214 595 0
-214 -709 -710 0
-214 709 710 0
215 -606 -612 0
215 606 612 0
-215 606 -612 0
-215 -606 612 0
216 100 217 -218 0
216 -650 217 -218 0
-216 218 0
-216 -217 0
-216 650 -100 0
217 -660 79 0
217 -79 86 0
217 -658 79 0
-217 -79 -86 0
-217 658 660 79 0
218 -606 173 220 0
218 606 219 220 0
218 -606 -219 220 0
-218 -220 0
-218 606 -219 0
-218 -606 -173 219 0
219 607 -170 213 0
219 -607 -170 -213 0
-219 170 0
-219 -607 213 0
-219 607 -213 0
220 676 -221 0
220 -676 221 0
-220 -676 -221 0
-220 676 221 0
221 -689 12 0
-221 689 0
-221 -12 0
222 -223 -240 -410 -419 0
-222 419 0
-222 223 0
-222 410 0
-222 240 0
223 -224 -227 -230 -237 0
-223 237 0
-223 224 0
-223 230 0
-223 227 0
224 656 79 225 0
224 -79 84 225 0
-224 -225 0
-224 -79 -84 0
-224 -656 79 0
225 609 -226 0
-225 -609 0
-225 226 0
226 610 -170 -183 0
226 -610 -170 183 0
-226 170 0
-226 -610 -183 0
-226 610 183 0
227 -79 228 0
227 650 652 228 0
-227 -228 0
-227 -652 79 0
-227 -650 79 0
228 578 691 229 0
-228 -578 0
-228 -229 0
-228 -691 0
229 707 -12 0
-229 -707 0
-229 12 0
230 173 231 0
230 -226 231 0
230 609 231 0
-230 -231 0
-230 -609 -173 226 0
231 -615 -173 232 0
-231 615 0
-231 173 0
-231 -232 0
232 617 -170 -233 0
232 -617 -170 233 0
-232 170 0
-232 -617 -233 0
-232 617 233 0
233 -234 -235 0
233 234 235 0
-233 234 -235 0
-233 -234 235 0
234 -615 -619 0
234 615 619 0
-234 615 -619 0
-234 -615 619 0
235 -595 -236 0
-235 595 0
-235 236 0
236 714 -715 0
236 -714 715 0
-236 -714 -715 0
-236 714 715 0
237 661 88 238 0
237 -88 118 238 0
-237 -238 0
-237 -88 -118 0
-237 -661 88 0
238 578 -689 239 0
-238 -578 0
-238 689 0
-238 -239 0
239 -603 -36 0
239 -603 707 0
-239 603 0
-239 -707 36 0
240 -241 -335 -346 -369 0
-240 369 0
-240 241 0
-240 346 0
-240 335 0
241 -242 -249 -256 -269 0
-241 269 0
-241 242 0
-241 256 0
-241 249 0
242 731 243 245 -246 0
242 -731 -243 245 -246 0
-242 -245 0
-242 731 -243 0
-242 246 0
-242 -731 243 0
243 -697 -698 -244 0
-243 697 0
-243 698 0
-243 244 0
244 554 -561 696 -719 0
-244 561 0
-244 -696 0
-244 -554 0
-244 719 0
245 -554 -747 0
245 544 -747 -49 0
245 -544 554 747 -49 0
-245 -554 747 0
-245 -544 554 -747 0
-245 554 49 0
-245 544 747 0
246 -719 18 -247 0
246 719 -14 247 0
246 -719 -14 -247 0
246 719 18 247 0
-246 719 -247 0
-246 -719 247 0
-246 14 -18 0
247 -517 731 -109 -248 0
-247 248 0
-247 517 0
-247 109 0
-247 -731 0
248 518 519 0
-248 -518 0
-248 -519 0
249 709 250 252 -254 0
249 -709 -250 252 -254 0
-249 -252 0
-249 709 -250 0
-249 254 0
-249 -709 250 0
250 -573 -695 251 0
250 -633 695 251 0
-250 -251 0
-250 633 695 0
-250 573 -695 0
251 678 -700 0
-251 -678 0
-251 700 0
252 -602 -253 0
252 -588 602 253 0
252 588 -590 -602 0
-252 588 602 0
-252 -588 -602 253 0
-252 602 -253 0
-252 588 590 253 0
253 -599 678 704 0
-253 599 0
-253 -704 0
-253 -678 0
254 -702 710 -108 255 0
254 702 -710 108 -255 0
254 702 710 108 255 0
254 -702 -710 -108 -255 0
-254 -702 108 0
-254 702 -108 0
-254 710 -255 0
-254 -710 255 0
255 -574 -695 251 0
255 -634 695 251 0
-255 -251 0
-255 634 695 0
-255 574 -695 0
256 713 257 -258 -261 0
256 -713 -257 -258 -261 0
-256 261 0
-256 -713 257 0
-256 258 0
-256 713 -257 0
257 -572 -695 251 0
257 -632 695 251 0
-257 -251 0
-257 632 695 0
-257 572 -695 0
258 -712 718 -259 260 0
258 712 -718 259 -260 0
258 712 718 259 260 0
258 -712 -718 -259 -260 0
-258 -712 259 0
-258 712 -259 0
-258 718 -260 0
-258 -718 260 0
259 -575 -695 251 0
259 -635 695 251 0
-259 -251 0
-259 635 695 0
-259 575 -695 0
260 519 730 -109 -166 0
-260 -519 0
-260 166 0
-260 109 0
-260 -730 0
261 -716 -262 267 -268 0
261 716 -262 267 268 0
-261 -267 0
-261 716 -268 0
-261 262 0
-261 -716 268 0
262 -714 730 263 -266 0
262 -714 -730 -263 -266 0
262 714 730 263 266 0
262 714 -730 -263 266 0
-262 714 -266 0
-262 -714 266 0
-262 -730 263 0
-262 730 -263 0
263 554 561 -264 -265 0
-263 -554 0
-263 265 0
-263 264 0
-263 -561 0
264 697 -698 0
-264 -697 0
-264 698 0
265 -696 -718 0
-265 696 0
-265 718 0
266 -577 -695 251 0
266 -637 695 251 0
-266 -251 0
-266 637 695 0
-266 577 -695 0
267 -704 -48 0
-267 704 0
-267 48 0
268 -563 -695 251 0
268 -631 695 251 0
-268 -251 0
-268 631 695 0
-268 563 -695 0
269 -270 -323 -329 -332 0
-269 332 0
-269 270 0
-269 329 0
-269 323 0
270 -271 -287 -292 -296 0
-270 296 0
-270 271 0
-270 292 0
-270 287 0
271 -272 -275 -278 -282 0
-271 282 0
-271 272 0
-271 278 0
-271 275 0
272 -554 -700 -273 0
272 700 244 -273 0
272 -700 -244 -273 0
-272 273 0
-272 700 -244 0
-272 554 -700 244 0
273 -89 274 0
273 18 274 0
-273 -274 0
-273 -18 89 0
274 -588 -599 0
274 592 -599 678 0
-274 599 0
-274 588 -678 0
-274 588 -592 0
275 644 801 276 277 0
275 -644 -801 276 277 0
-275 -276 0
-275 -644 801 0
-275 -277 0
-275 644 -801 0
276 594 -665 0
-276 -594 0
-276 665 0
277 603 -647 0
-277 -603 0
-277 647 0
278 559 698 279 -280 0
-278 280 0
-278 -279 0
-278 -559 0
-278 -698 0
279 -603 -664 0
-279 603 0
-279 664 0
280 -665 281 0
280 594 281 0
-280 -281 0
-280 -594 665 0
281 -585 -588 0
-281 585 0
-281 588 0
282 283 -284 -285 -286 0
-282 -283 0
-282 286 0
-282 285 0
-282 284 0
283 603 -648 0
-283 -603 0
-283 648 0
284 -580 605 0
284 594 -597 0
284 594 605 0
284 -580 -597 0
-284 580 -594 0
-284 597 -605 0
285 -594 687 0
285 579 -663 0
285 -594 -663 0
285 579 687 0
-285 663 -687 0
-285 -579 594 0
286 -579 595 0
286 580 -592 0
286 580 595 0
286 -579 -592 0
-286 579 -580 0
-286 592 -595 0
287 18 -289 291 0
287 288 -289 291 0
-287 289 0
-287 -291 0
-287 -288 -18 0
288 661 -674 0
288 -661 674 0
-288 -661 -674 0
-288 661 674 0
289 -667 -290 0
289 697 18 0
289 18 -290 0
289 -667 697 0
-289 -697 290 0
-289 667 -18 0
290 717 -718 0
290 717 -719 0
-290 -717 0
-290 718 719 0
291 -586 598 0
291 584 -598 0
291 -584 586 0
-291 -584 -586 -598 0
-291 584 586 598 0
292 828 293 294 295 0
292 -828 -293 294 295 0
-292 -294 0
-292 -828 293 0
-292 -295 0
-292 828 -293 0
293 699 -748 0
293 -699 748 0
-293 -699 -748 0
-293 699 748 0
294 603 -663 687 0
-294 -603 0
-294 663 0
-294 -687 0
295 598 -602 -148 0
295 598 -678 -148 0
-295 -598 0
-295 148 0
-295 602 678 0
296 -297 -301 -303 -309 0
-296 309 0
-296 297 0
-296 303 0
-296 301 0
297 632 722 298 -299 0
297 -632 -722 298 -299 0
-297 -298 0
-297 632 -722 0
-297 299 0
-297 -632 722 0
298 585 588 -593 0
-298 593 0
-298 -588 0
-298 -585 0
299 637 727 300 0
299 -637 -727 300 0
299 -595 637 727 0
299 -595 -637 -727 0
-299 -637 727 0
-299 637 -727 0
-299 595 -300 0
300 588 -592 0
-300 -588 0
-300 592 0
301 290 300 -302 0
301 -599 290 -302 0
-301 302 0
-301 -290 0
-301 599 -300 0
302 -604 638 -708 747 0
302 604 -638 708 -747 0
302 604 638 708 747 0
302 -604 -638 -708 -747 0
-302 -604 708 0
-302 604 -708 0
-302 638 -747 0
-302 -638 747 0
303 -304 -305 -306 -307 0
-303 307 0
-303 304 0
-303 306 0
-303 305 0
304 -631 642 -721 791 0
304 631 -642 721 -791 0
304 631 642 721 791 0
304 -631 -642 -721 -791 0
-304 -631 721 0
-304 631 -721 0
-304 642 -791 0
-304 -642 791 0
305 -601 -699 279 0
305 601 699 279 0
305 601 -648 699 0
305 -601 -648 -699 0
-305 -601 699 0
-305 601 -699 0
-305 648 -279 0
306 581 587 -639 -776 0
306 -581 -587 -639 -776 0
306 581 587 639 776 0
306 -581 -587 639 776 0
-306 581 -587 0
-306 -581 587 0
-306 639 -776 0
-306 -639 776 0
307 640 781 308 0
307 -640 -781 308 0
307 598 -640 -781 0
307 598 640 781 0
-307 -640 781 0
-307 640 -781 0
-307 -598 -308 0
308 602 678 0
-308 -602 0
-308 -678 0
309 -310 -314 -317 -320 0
-309 320 0
-309 310 0
-309 317 0
-309 314 0
310 634 724 311 -312 0
310 -634 -724 311 -312 0
-310 -311 0
-310 634 -724 0
-310 312 0
-310 -634 724 0
311 643 -794 0
311 -643 794 0
-311 -643 -794 0
-311 643 794 0
312 -646 -807 313 0
312 646 807 313 0
312 646 -692 807 0
312 -646 -692 -807 0
-312 -646 807 0
-312 646 -807 0
-312 692 -313 0
313 677 -700 0
-313 -677 0
-313 700 0
314 589 638 315 -316 0
314 -589 -638 315 -316 0
-314 -315 0
-314 589 -638 0
-314 316 0
-314 -589 638 0
315 -582 591 0
315 -583 591 0
-315 -591 0
-315 582 583 0
316 -636 -726 89 0
316 636 726 89 0
316 636 -688 726 0
316 -636 -688 -726 0
-316 -636 726 0
-316 636 -726 0
-316 688 -89 0
317 641 782 -318 319 0
317 -641 -782 -318 319 0
-317 -319 0
-317 -641 782 0
-317 318 0
-317 641 -782 0
318 588 604 -635 -725 0
318 -588 -604 -635 -725 0
318 588 604 635 725 0
318 -588 -604 635 725 0
-318 588 -604 0
-318 -588 604 0
-318 635 -725 0
-318 -635 725 0
319 583 -591 0
319 582 -591 0
-319 591 0
-319 -582 -583 0
320 587 600 -321 322 0
320 -587 -600 -321 322 0
-320 -322 0
-320 -587 600 0
-320 321 0
-320 587 -600 0
321 -600 633 -691 723 0
321 600 -633 691 -723 0
321 600 633 691 723 0
321 -600 -633 -691 -723 0
-321 -600 691 0
-321 600 -691 0
-321 633 -723 0
-321 -633 723 0
322 603 -647 664 0
-322 -603 0
-322 647 0
-322 -664 0
323 173 -324 0
323 -622 -324 -326 0
323 622 -324 326 0
-323 324 0
-323 622 -173 -326 0
-323 -622 -173 326 0
324 591 -325 0
324 -591 325 0
-324 -591 -325 0
-324 591 325 0
325 595 -148 153 281 0
-325 148 0
-325 -281 0
-325 -595 0
-325 -153 0
326 -171 327 0
-326 171 0
-326 -327 0
327 620 -328 0
327 -620 328 0
-327 -620 -328 0
-327 620 328 0
328 -595 716 0
-328 595 0
-328 -716 0
329 -711 715 -330 331 0
329 711 -715 330 -331 0
329 711 715 330 331 0
329 -711 -715 -330 -331 0
-329 -711 330 0
-329 711 -330 0
-329 715 -331 0
-329 -715 331 0
330 -576 -695 251 0
330 -636 695 251 0
-330 -251 0
-330 636 695 0
-330 576 -695 0
331 -562 -695 251 0
331 -630 695 251 0
-331 -251 0
-331 630 695 0
-331 562 -695 0
332 -595 665 -333 -334 0
332 -595 -665 333 -334 0
332 595 665 -333 334 0
332 595 -665 333 334 0
-332 -665 -333 0
-332 665 333 0
-332 595 -334 0
-332 -595 334 0
333 578 687 9 279 0
-333 -279 0
-333 -9 0
-333 -578 0
-333 -687 0
334 -588 602 0
334 -588 -599 -678 0
-334 588 0
-334 599 -602 0
-334 -602 678 0
335 -336 -339 -342 -345 0
-335 345 0
-335 336 0
-335 342 0
-335 339 0
336 -621 337 0
336 -613 338 0
336 -613 -621 0
336 337 338 0
-336 621 -338 0
-336 613 -337 0
337 -170 -213 0
-337 170 0
-337 213 0
338 -170 233 0
-338 170 0
-338 -233 0
339 173 340 0
339 -338 340 0
339 621 340 0
-339 -340 0
-339 -621 -173 338 0
340 700 -341 0
340 58 -341 0
340 -677 -341 0
-340 341 0
-340 677 -700 -58 0
341 -692 82 0
-341 692 0
-341 -82 0
342 173 343 0
342 -337 343 0
342 613 343 0
-342 -343 0
-342 -613 -173 337 0
343 -619 -173 344 0
-343 619 0
-343 173 0
-343 -344 0
344 621 -170 -327 0
344 -621 -170 327 0
-344 170 0
-344 -621 -327 0
-344 621 327 0
345 -619 56 0
345 -18 344 0
345 -619 -18 0
345 56 344 0
-345 619 -344 0
-345 18 -56 0
346 -347 -355 -359 -368 0
-346 368 0
-346 347 0
-346 359 0
-346 355 0
347 348 -352 0
347 727 348 0
347 -554 348 0
-347 -348 0
-347 554 -727 352 0
348 554 -720 349 0
-348 -554 0
-348 720 0
-348 -349 0
349 -244 -350 0
349 -244 351 0
-349 244 0
-349 350 -351 0
350 -535 -697 698 0
350 -543 -697 -698 0
-350 697 0
-350 543 -698 0
-350 535 698 0
351 -697 0
351 526 -698 0
351 549 698 0
-351 -526 697 -698 0
-351 -549 697 698 0
352 -244 -353 0
352 -244 354 0
-352 244 0
-352 353 -354 0
353 -530 -697 698 0
353 -539 -697 -698 0
-353 697 0
-353 539 -698 0
-353 530 698 0
354 -697 0
354 553 -698 0
354 533 698 0
-354 -533 697 698 0
-354 -553 697 -698 0
355 578 352 -356 0
355 -578 -727 356 0
355 578 -727 -356 0
355 -578 352 356 0
-355 -578 -356 0
-355 578 356 0
-355 727 -352 0
356 603 -357 0
356 647 686 -357 0
-356 357 0
-356 -603 -686 0
-356 -603 -647 0
357 603 -358 0
357 648 664 -358 0
-357 358 0
-357 -603 -664 0
-357 -603 -648 0
358 603 687 0
358 663 687 0
-358 -687 0
-358 -603 -663 0
359 360 363 -367 0
359 -722 363 -367 0
-359 367 0
-359 -363 0
-359 722 -360 0
360 -244 -361 0
360 -244 362 0
-360 244 0
-360 361 -362 0
361 -552 697 -698 0
361 -538 -697 -698 0
-361 698 0
-361 552 697 0
-361 538 -697 0
362 -698 0
362 522 697 0
362 529 -697 0
-362 -522 697 698 0
-362 -529 -697 698 0
363 554 -723 364 0
-363 -554 0
-363 723 0
-363 -364 0
364 -244 -365 0
364 -244 366 0
-364 244 0
-364 365 -366 0
365 -537 -697 698 0
365 -546 -697 -698 0
-365 697 0
-365 546 -698 0
-365 537 698 0
366 -697 0
366 528 -698 0
366 551 698 0
-366 -528 697 -698 0
-366 -551 697 698 0
367 -723 349 0
367 -720 364 0
367 -720 -723 0
367 349 364 0
-367 723 -364 0
-367 720 -349 0
368 -614 177 0
368 -625 190 0
368 -614 -625 0
368 177 190 0
-368 614 -190 0
-368 625 -177 0
369 -370 -399 -403 -405 0
-369 405 0
-369 370 0
-369 403 0
-369 399 0
370 -371 -381 -386 -393 0
-370 393 0
-370 371 0
-370 386 0
-370 381 0
371 -554 -372 378 0
371 -724 -372 -378 0
371 724 -372 378 0
-371 372 0
-371 724 -378 0
-371 554 -724 378 0
372 725 376 0
372 -554 376 0
372 -373 376 0
-372 -376 0
-372 554 -725 373 0
373 -244 -374 0
373 -244 375 0
-373 244 0
-373 374 -375 0
374 -523 697 -698 0
374 -540 -697 -698 0
-374 698 0
-374 523 697 0
-374 540 -697 0
375 -698 0
375 544 697 0
375 531 -697 0
-375 -531 -697 698 0
-375 -544 697 698 0
376 694 -377 0
376 -694 377 0
-376 -694 -377 0
-376 694 377 0
377 686 706 -357 0
377 -603 706 -357 0
-377 357 0
-377 -706 0
-377 603 -686 0
378 -244 -379 0
378 -244 380 0
-378 244 0
-378 379 -380 0
379 -532 -697 698 0
379 -541 -697 -698 0
-379 697 0
-379 541 -698 0
-379 532 698 0
380 -697 0
380 524 -698 0
380 547 698 0
-380 -524 697 -698 0
-380 -547 697 698 0
381 -596 -382 385 0
381 334 -382 385 0
-381 382 0
-381 -385 0
-381 596 -334 0
382 148 383 0
382 -334 383 0
382 596 383 0
-382 -383 0
-382 -596 -148 334 0
383 704 384 0
-383 -704 0
-383 -384 0
384 554 49 0
384 549 554 0
-384 -554 0
-384 -549 -49 0
385 -698 -290 0
385 -696 290 0
-385 696 290 0
-385 698 -290 0
386 18 84 -387 0
386 -17 84 -387 0
-386 387 0
-386 -84 0
-386 17 -18 0
387 388 -389 -391 -392 0
-387 -388 0
-387 392 0
-387 391 0
-387 389 0
388 605 -153 0
388 593 -153 0
-388 153 0
-388 -593 -605 0
389 -588 9 0
389 -647 -390 0
389 -588 -647 0
389 9 -390 0
-389 647 -9 0
-389 588 390 0
390 590 593 0
-390 -590 0
-390 -593 0
391 -603 645 -705 803 0
391 603 -645 705 -803 0
391 603 645 705 803 0
391 -603 -645 -705 -803 0
-391 -603 705 0
-391 603 -705 0
-391 645 -803 0
-391 -645 803 0
392 630 720 281 0
392 -630 -720 281 0
392 -590 630 720 0
392 -590 -630 -720 0
-392 -630 720 0
-392 630 -720 0
-392 590 -281 0
393 -725 -394 -396 0
393 373 -394 -396 0
-393 396 0
-393 394 0
-393 725 -373 0
394 603 -686 395 0
394 686 706 395 0
394 -686 -706 395 0
-394 -395 0
-394 686 -706 0
-394 -603 -686 706 0
395 -533 554 701 -49 0
-395 49 0
-395 -701 0
-395 533 0
-395 -554 0
396 -605 701 -398 0
396 605 -397 398 0
396 605 701 398 0
396 -605 -397 -398 0
-396 605 -398 0
-396 -605 398 0
-396 -701 397 0
397 554 49 0
397 -533 554 0
-397 -554 0
-397 533 -49 0
398 -599 678 -704 0
-398 599 0
-398 -678 0
-398 704 0
399 -726 58 0
399 -341 400 0
399 58 400 0
399 -726 -341 0
-399 -58 341 0
-399 726 -400 0
400 -244 -401 0
400 -244 402 0
-400 244 0
-400 401 -402 0
401 -527 697 -698 0
401 -545 -697 -698 0
-401 698 0
-401 527 697 0
-401 545 -697 0
402 -698 0
402 550 697 0
402 536 -697 0
-402 -536 -697 698 0
-402 -550 697 698 0
403 722 404 0
403 -554 404 0
403 -360 404 0
-403 -404 0
-403 554 -722 360 0
404 554 -726 400 0
-404 -554 0
-404 726 0
-404 -400 0
405 -554 -406 407 0
405 -721 -406 -407 0
405 721 -406 407 0
-405 406 0
-405 721 -407 0
-405 554 -721 407 0
406 700 58 0
406 677 -58 0
406 -677 58 0
-406 -677 -58 0
-406 677 -700 58 0
407 -244 -408 0
407 -244 409 0
-407 244 0
-407 408 -409 0
408 -525 697 -698 0
408 -542 -697 -698 0
-408 698 0
-408 525 697 0
-408 542 -697 0
409 -698 0
409 548 697 0
409 534 -697 0
-409 -534 -697 698 0
-409 -548 697 698 0
410 -615 -411 415 0
410 232 -411 415 0
-410 411 0
-410 -415 0
-410 615 -232 0
411 113 412 0
411 -610 79 0
411 79 412 0
411 -610 113 0
-411 -79 -113 0
-411 610 -412 0
412 595 -414 0
412 234 413 -414 0
412 -234 -413 -414 0
-412 414 0
-412 -595 234 -413 0
-412 -595 -234 413 0
413 169 -236 0
413 -169 236 0
-413 -169 -236 0
-413 169 236 0
414 -595 -170 0
414 609 -170 -234 0
414 -609 -170 234 0
-414 170 0
-414 595 -609 -234 0
-414 595 609 234 0
415 -607 -173 416 0
-415 607 0
-415 173 0
-415 -416 0
416 595 -418 0
416 -186 417 -418 0
416 186 -417 -418 0
-416 418 0
-416 -595 186 417 0
-416 -595 -186 -417 0
417 184 -208 0
417 -184 208 0
-417 -184 -208 0
-417 184 208 0
418 -595 -170 0
418 606 -170 -184 0
418 -606 -170 184 0
-418 170 0
-418 595 -606 -184 0
-418 595 606 184 0
419 -79 -420 421 0
419 654 -420 421 0
-419 420 0
-419 -421 0
-419 -654 79 0
420 229 416 0
420 -607 691 0
420 691 416 0
420 -607 229 0
-420 -691 -229 0
-420 607 -416 0
421 -610 -173 412 0
-421 610 0
-421 173 0
-421 -412 0
422 687 239 423 -431 0
422 -687 -239 423 -431 0
-422 -423 0
-422 687 -239 0
-422 431 0
-422 -687 239 0
423 -778 -35 424 0
-423 778 0
-423 35 0
-423 -424 0
424 -46 425 -427 0
424 -46 -425 427 0
-424 46 0
-424 -425 -427 0
-424 425 427 0
425 -777 -426 0
425 777 426 0
-425 777 -426 0
-425 -777 426 0
426 785 -804 0
426 -785 804 0
-426 -785 -804 0
-426 785 804 0
427 -687 29 428 0
427 -687 -29 -428 0
-427 687 0
-427 -29 428 0
-427 29 -428 0
428 -667 429 -430 0
428 -667 -429 430 0
428 700 429 -430 0
428 700 -429 430 0
-428 429 430 0
-428 -429 -430 0
-428 667 -700 0
429 636 693 0
429 576 -693 0
-429 -636 693 0
-429 -576 -693 0
430 635 693 0
430 575 -693 0
-430 -635 693 0
-430 -575 -693 0
431 -804 432 0
431 -808 435 0
431 -804 -808 0
431 432 435 0
-431 804 -435 0
-431 808 -432 0
432 809 -46 -433 0
432 -809 -46 433 0
-432 46 0
-432 -809 -433 0
-432 809 433 0
433 795 -434 0
433 -795 434 0
-433 -795 -434 0
-433 795 434 0
434 -687 141 0
-434 687 0
-434 -141 0
435 44 -46 436 0
435 -44 -46 -436 0
-435 46 0
-435 -44 436 0
-435 44 -436 0
436 -787 -805 0
436 787 805 0
-436 787 -805 0
-436 -787 805 0
437 -785 -438 442 0
437 -438 442 443 0
-437 438 0
-437 -442 0
-437 785 -443 0
438 -690 -439 440 0
438 690 439 440 0
438 690 -810 439 0
438 -690 -810 -439 0
-438 -690 439 0
-438 690 -439 0
-438 810 -440 0
439 603 -663 0
439 603 -36 0
-439 -603 0
-439 663 36 0
440 -441 -46 0
-440 441 0
-440 46 0
441 -687 40 0
441 687 39 0
-441 687 -39 0
-441 -687 -40 0
442 -808 -35 432 0
-442 808 0
-442 35 0
-442 -432 0
443 786 -46 444 0
443 -786 -46 -444 0
-443 46 0
-443 -786 444 0
-443 786 -444 0
444 -426 -445 0
444 426 445 0
-444 426 -445 0
-444 -426 445 0
445 -687 -428 0
-445 687 0
-445 428 0
446 -675 -447 -457 460 0
446 675 -447 457 460 0
-446 -460 0
-446 -675 457 0
-446 447 0
-446 675 -457 0
447 35 455 0
447 -448 455 0
447 787 455 0
-447 -455 0
-447 -787 -35 448 0
448 788 -46 449 0
448 -788 -46 -449 0
-448 46 0
-448 -788 449 0
-448 788 -449 0
449 -687 -451 0
449 687 450 0
-449 687 -450 0
-449 -687 451 0
450 787 -808 0
450 -787 808 0
-450 -787 -808 0
-450 787 808 0
451 -452 -450 0
451 452 450 0
-451 452 -450 0
-451 -452 450 0
452 20 -453 454 0
452 20 453 -454 0
-452 -20 0
-452 -453 -454 0
-452 453 454 0
453 637 693 0
453 577 -693 0
-453 -637 693 0
-453 -577 -693 0
454 630 693 0
454 562 -693 0
-454 -630 693 0
-454 -562 -693 0
455 805 -456 0
455 -805 -35 456 0
-455 -805 -456 0
-455 805 456 0
-455 -805 35 0
456 -46 -444 0
-456 46 0
-456 444 0
457 -102 -122 -458 0
-457 102 0
-457 122 0
-457 458 0
458 -655 -659 -97 -459 0
-458 459 0
-458 655 0
-458 97 0
-458 659 0
459 -651 -653 0
-459 651 0
-459 653 0
460 806 -461 0
460 -806 -35 461 0
-460 -806 -461 0
-460 806 461 0
-460 -806 35 0
461 810 -46 462 0
461 -810 -46 -462 0
-461 46 0
-461 -810 462 0
-461 810 -462 0
462 463 -466 0
462 -463 466 0
-462 -463 -466 0
-462 463 466 0
463 -687 -133 464 0
463 -687 -29 464 0
-463 687 0
-463 -464 0
-463 29 133 0
464 -574 -693 465 0
464 -634 693 465 0
-464 -465 0
-464 634 693 0
-464 574 -693 0
465 633 693 0
465 573 -693 0
-465 -633 693 0
-465 -573 -693 0
466 -777 -797 0
466 777 797 0
-466 777 -797 0
-466 -777 797 0
467 -787 -468 495 0
467 448 -468 495 0
-467 468 0
-467 -495 0
-467 787 -448 0
468 -469 -485 -489 -493 0
-468 493 0
-468 469 0
-468 489 0
-468 485 0
469 651 88 470 0
469 -88 93 470 0
-469 -470 0
-469 -88 -93 0
-469 -651 88 0
470 -148 478 0
470 -148 471 0
-470 148 0
-470 -471 -478 0
471 -626 628 -472 475 0
471 626 -628 472 -475 0
471 626 628 472 475 0
471 -626 -628 -472 -475 0
-471 -626 472 0
-471 626 -472 0
-471 628 -475 0
-471 -628 475 0
472 585 -473 0
472 -585 588 0
472 -585 -613 0
-472 585 473 0
-472 -585 -588 613 0
473 154 474 0
473 -602 -716 474 0
-473 -474 0
-473 716 -154 0
-473 602 -154 0
474 612 -153 0
-474 -612 0
-474 153 0
475 585 -476 0
475 -585 588 0
475 -585 -621 0
-475 585 476 0
-475 -585 -588 621 0
476 154 477 0
476 -602 -711 477 0
-476 -477 0
-476 711 -154 0
-476 602 -154 0
477 619 -153 0
-477 -619 0
-477 153 0
478 -627 629 -479 482 0
478 627 -629 479 -482 0
478 627 629 479 482 0
478 -627 -629 -479 -482 0
-478 -627 479 0
-478 627 -479 0
-478 629 -482 0
-478 -629 482 0
479 585 -480 0
479 -585 588 0
479 -585 -616 0
-479 585 480 0
-479 -585 -588 616 0
480 154 481 0
480 -602 -715 481 0
-480 -481 0
-480 715 -154 0
-480 602 -154 0
481 614 -153 0
-481 -614 0
-481 153 0
482 585 -483 0
482 -585 588 0
482 -585 -625 0
-482 585 483 0
-482 -585 -588 625 0
483 154 484 0
483 -602 -709 484 0
-483 -484 0
-483 709 -154 0
-483 602 -154 0
484 624 -153 0
-484 -624 0
-484 153 0
485 695 706 486 -487 0
485 695 -706 -486 -487 0
485 -695 -706 -486 487 0
485 -695 706 486 487 0
-485 -695 -487 0
-485 695 487 0
-485 -706 486 0
-485 706 -486 0
486 -11 48 0
-486 11 0
-486 -48 0
487 656 79 -251 -488 0
-487 -656 0
-487 488 0
-487 251 0
-487 -79 0
488 650 652 658 660 0
-488 -660 0
-488 -658 0
-488 -650 0
-488 -652 0
489 -490 491 0
489 649 491 0
-489 -491 0
-489 -649 490 0
490 -88 93 0
-490 88 0
-490 -93 0
491 -707 -492 0
491 -603 707 492 0
491 603 -648 -707 0
-491 603 707 0
-491 -603 -707 492 0
-491 707 -492 0
-491 603 648 492 0
492 -12 -47 0
-492 12 0
-492 47 0
493 -689 494 0
493 239 494 0
-493 -494 0
-493 689 -239 0
494 -659 88 0
494 -88 95 0
494 -657 88 0
-494 -88 -95 0
-494 657 659 88 0
495 796 -496 0
495 -796 -35 496 0
-495 -796 -496 0
-495 796 496 0
-495 -796 35 0
496 -46 433 0
-496 46 0
-496 -433 0
497 35 498 -500 0
497 -786 -498 -500 0
497 786 498 -500 0
-497 500 0
-497 786 -498 0
-497 -786 -35 498 0
498 785 -46 499 0
498 -785 -46 -499 0
-498 46 0
-498 -785 499 0
-498 785 -499 0
499 -69 -451 0
499 -687 69 451 0
499 687 69 -450 0
-499 -69 451 0
-499 -687 69 -451 0
-499 687 69 450 0
500 -501 -504 -513 -515 0
-500 515 0
-500 501 0
-500 513 0
-500 504 0
501 -809 35 503 0
501 809 502 503 0
501 -809 -502 503 0
-501 -503 0
-501 809 -502 0
-501 -809 -35 502 0
502 -46 -449 0
-502 46 0
-502 449 0
503 -785 -35 443 0
-503 785 0
-503 35 0
-503 -443 0
504 -693 505 509 -511 0
504 693 -505 509 -511 0
-504 511 0
-504 693 505 0
-504 -509 0
-504 -693 -505 0
505 661 88 -506 -507 0
-505 -661 0
-505 507 0
-505 506 0
-505 -88 0
506 653 655 0
-506 -653 0
-506 -655 0
507 649 651 -20 -508 0
-507 -649 0
-507 508 0
-507 20 0
-507 -651 0
508 657 659 0
-508 -657 0
-508 -659 0
509 798 -510 0
-509 -798 0
-509 510 0
510 -46 -462 0
-510 46 0
-510 462 0
511 -777 424 0
511 -778 512 0
511 -777 -778 0
511 424 512 0
-511 777 -512 0
-511 778 -424 0
512 778 -46 462 0
512 -778 -46 -462 0
-512 46 0
-512 -778 462 0
-512 778 -462 0
513 35 514 0
513 -510 514 0
513 798 514 0
-513 -514 0
-513 -798 -35 510 0
514 -810 -35 440 0
-514 810 0
-514 35 0
-514 -440 0
515 35 516 0
515 -512 516 0
515 777 516 0
-515 -516 0
-515 -777 -35 512 0
516 -804 -35 435 0
-516 804 0
-516 35 0
-516 -435 0
1158 0
2 3 0
-2 -3 0
2 0

